unsat
(:conflicts            1
 :max-generation       1
 :max-memory           29.80
 :memory               23.42
 :mk-bool-var          5135
 :mk-clause            414
 :mk-clause-binary     1634
 :num-allocs           97097176
 :num-checks           1
 :quant-instantiations 563
 :rlimit-count         856904
 :time                 0.08)
